NAME 
ROWS
 N  OBJ
 L  R0      
 L  R1      
 L  R2      
 E  R3      
 E  R4      
 E  R5      
 E  R6      
 E  R7      
 E  R8      
 E  R9      
 E  R10     
 E  R11     
 E  R12     
COLUMNS
    MARKER    'MARKER'                 'INTORG'
    I0(8)     OBJ       135
    I0(8)     R0        -41
    I0(8)     R1        14
    I0(8)     R2        -178
    I0(8)     R4        5
    I0(8)     R5        7
    I0(8)     R6        8
    I0(8)     R7        17
    I0(8)     R12       1
    I1(7)     OBJ       11
    I1(7)     R0        -61
    I1(7)     R1        107
    I1(7)     R2        -69
    I1(7)     R3        12
    I1(7)     R5        8
    I1(7)     R7        4
    I1(7)     R12       1
    I2(8)     OBJ       -185
    I2(8)     R0        -107
    I2(8)     R1        122
    I2(8)     R2        121
    I2(8)     R3        12
    I2(8)     R4        9
    I2(8)     R6        3
    I2(8)     R7        17
    I2(8)     R12       1
    I3(6)     OBJ       196
    I3(6)     R0        142
    I3(6)     R1        -150
    I3(6)     R2        195
    I3(6)     R4        18
    I3(6)     R7        2
    I3(6)     R12       1
    I4(4)     OBJ       87
    I4(4)     R0        -147
    I4(4)     R1        -140
    I4(4)     R2        -62
    I4(4)     R12       1
    MARKER    'MARKER'                 'INTEND'
    C5(6)     OBJ       8
    C5(6)     R0        6
    C5(6)     R1        3
    C5(6)     R2        -10
    C5(6)     R5        14
    C5(6)     R8        16
    C5(6)     R9        14
    C6(7)     OBJ       -8
    C6(7)     R0        3
    C6(7)     R1        -6
    C6(7)     R2        -4
    C6(7)     R3        7
    C6(7)     R4        2
    C6(7)     R9        4
    C6(7)     R10       4
    C7(9)     OBJ       -9
    C7(9)     R0        2
    C7(9)     R1        5
    C7(9)     R2        -1
    C7(9)     R3        7
    C7(9)     R5        -1
    C7(9)     R6        19
    C7(9)     R9        11
    C7(9)     R10       17
    C7(9)     R11       3
    C8(8)     OBJ       6
    C8(8)     R0        -9
    C8(8)     R1        -7
    C8(8)     R2        6
    C8(8)     R3        4
    C8(8)     R5        8
    C8(8)     R6        6
    C8(8)     R8        15
    C8(8)     R9        17
    C9(7)     OBJ       7
    C9(7)     R0        -2
    C9(7)     R1        -5
    C9(7)     R2        -2
    C9(7)     R3        15
    C9(7)     R4        5
    C9(7)     R5        2
    C9(7)     R6        15
    C10(1)    R3        1
    C11(1)    R4        1
    C12(1)    R5        1
    C13(1)    R6        1
    C14(1)    R7        1
    C15(1)    R8        1
    C16(1)    R9        1
    C17(1)    R10       1
    C18(1)    R11       1
    C19(1)    R12       1
RHS
    RHS1      R0        -8.1065934065934044e+01
    RHS1      R1        8.3582417582417463e+01
    RHS1      R2        8.8912087912087884e+01
    RHS1      R3        76
    RHS1      R4        80
    RHS1      R5        98
    RHS1      R6        63
    RHS1      R7        65
    RHS1      R8        96
    RHS1      R9        88
    RHS1      R10       56
    RHS1      R11       80
    RHS1      R12       1
BOUNDS
 UP BND1      I0(8)     1
 UP BND1      I1(7)     1
 UP BND1      I2(8)     1
 UP BND1      I3(6)     1
 UP BND1      I4(4)     1
ENDATA
